SIZE = 21,
295,635,585,385,390,87,510,36,650,305,425,370,220,545,300,535,120,320,415,480,
415,480,440,245,160,170,455,265,340,440,380,480,625,435,575,600,465,345,81,
515,435,585,375,355,285,715,165,350,350,205,190,430,175,495,78,91,250,
755,775,495,190,615,480,350,750,585,255,345,235,555,645,625,285,655,
265,445,485,680,255,280,350,370,590,450,650,320,175,150,400,235,
525,350,540,310,380,460,590,255,180,48,200,155,480,385,610,
315,125,750,140,235,240,240,170,220,600,485,170,405,265,
29,475,150,390,625,155,225,90,240,240,96,605,545,
165,345,490,320,170,77,27,640,500,130,97,835,
480,200,125,140,270,235,125,475,230,205,420,
310,185,380,495,505,240,105,280,280,370,
370,100,690,575,380,295,605,120,520,
515,420,68,155,280,700,365,360,
290,220,150,425,390,395,205,
430,440,380,310,215,660,
440,91,320,67,610,
430,63,160,705,
110,475,590,
570,605,
865,
NOTE = 